c File: data_files/evolved_graphs/g7934.col
c
c Auto generated graph
c
p edge 100 29
e 1 49
e 4 10
e 5 50
e 8 54
e 9 53
e 11 23
e 12 63
e 13 73
e 14 59
e 15 34
e 15 58
e 15 74
e 16 25
e 17 74
e 19 61
e 21 33
e 22 52
e 24 26
e 29 60
e 32 67
e 35 46
e 36 48
e 38 40
e 55 93
e 57 58
e 70 78
e 79 95
e 87 89
e 88 94
